NAME: belgium-tourism-14
TYPE: TSP
COMMENT: Belgium tourist attractions
DIMENSION: 14
EDGE_WEIGHT_TYPE: GEO
DISPLAY_DATA_TYPE: COORD_DISPLAY
NODE_COORD_SECTION
 1 51.21944 4.40246 312 88 Antwerp
 2 50.76092 4.11017 206 353 Bruges
 3 51.05434 3.71742 709 224 C-Mine
 4 51.21944 4.40246 500 636 Dinant
 5 51.05434 3.71742 63 184 Ghent
 6 50.84673 4.35241 297 300 Grand-Place de Bruxelles
 7 50.93069 5.33248 650 254 Hasselt
 8 50.87984 4.70051 422 283 Leuven
 9 51.02587 4.47753 340 198 Mechelen
 10 50.45424 3.95665 151 527 Mons
 11 50.64812 5.57735 742 417 Montagne de Bueren
 12 50.46738 4.87198 485 522 Namur
 13 50.47987 5.71185 790 513 Remouchamps
 14 50.71469 4.39909 313 379 Waterloo
EOF
